c created by edge2cnf
p cnf 500 3100
-1 -2 0
-1 -3 0
-1 -4 0
-1 -5 0
-2 -3 0
-2 -4 0
-2 -5 0
-3 -4 0
-3 -5 0
-4 -5 0
1 2 3 4 5 0
-6 -7 0
-6 -8 0
-6 -9 0
-6 -10 0
-7 -8 0
-7 -9 0
-7 -10 0
-8 -9 0
-8 -10 0
-9 -10 0
6 7 8 9 10 0
-11 -12 0
-11 -13 0
-11 -14 0
-11 -15 0
-12 -13 0
-12 -14 0
-12 -15 0
-13 -14 0
-13 -15 0
-14 -15 0
11 12 13 14 15 0
-16 -17 0
-16 -18 0
-16 -19 0
-16 -20 0
-17 -18 0
-17 -19 0
-17 -20 0
-18 -19 0
-18 -20 0
-19 -20 0
16 17 18 19 20 0
-21 -22 0
-21 -23 0
-21 -24 0
-21 -25 0
-22 -23 0
-22 -24 0
-22 -25 0
-23 -24 0
-23 -25 0
-24 -25 0
21 22 23 24 25 0
-26 -27 0
-26 -28 0
-26 -29 0
-26 -30 0
-27 -28 0
-27 -29 0
-27 -30 0
-28 -29 0
-28 -30 0
-29 -30 0
26 27 28 29 30 0
-31 -32 0
-31 -33 0
-31 -34 0
-31 -35 0
-32 -33 0
-32 -34 0
-32 -35 0
-33 -34 0
-33 -35 0
-34 -35 0
31 32 33 34 35 0
-36 -37 0
-36 -38 0
-36 -39 0
-36 -40 0
-37 -38 0
-37 -39 0
-37 -40 0
-38 -39 0
-38 -40 0
-39 -40 0
36 37 38 39 40 0
-41 -42 0
-41 -43 0
-41 -44 0
-41 -45 0
-42 -43 0
-42 -44 0
-42 -45 0
-43 -44 0
-43 -45 0
-44 -45 0
41 42 43 44 45 0
-46 -47 0
-46 -48 0
-46 -49 0
-46 -50 0
-47 -48 0
-47 -49 0
-47 -50 0
-48 -49 0
-48 -50 0
-49 -50 0
46 47 48 49 50 0
-51 -52 0
-51 -53 0
-51 -54 0
-51 -55 0
-52 -53 0
-52 -54 0
-52 -55 0
-53 -54 0
-53 -55 0
-54 -55 0
51 52 53 54 55 0
-56 -57 0
-56 -58 0
-56 -59 0
-56 -60 0
-57 -58 0
-57 -59 0
-57 -60 0
-58 -59 0
-58 -60 0
-59 -60 0
56 57 58 59 60 0
-61 -62 0
-61 -63 0
-61 -64 0
-61 -65 0
-62 -63 0
-62 -64 0
-62 -65 0
-63 -64 0
-63 -65 0
-64 -65 0
61 62 63 64 65 0
-66 -67 0
-66 -68 0
-66 -69 0
-66 -70 0
-67 -68 0
-67 -69 0
-67 -70 0
-68 -69 0
-68 -70 0
-69 -70 0
66 67 68 69 70 0
-71 -72 0
-71 -73 0
-71 -74 0
-71 -75 0
-72 -73 0
-72 -74 0
-72 -75 0
-73 -74 0
-73 -75 0
-74 -75 0
71 72 73 74 75 0
-76 -77 0
-76 -78 0
-76 -79 0
-76 -80 0
-77 -78 0
-77 -79 0
-77 -80 0
-78 -79 0
-78 -80 0
-79 -80 0
76 77 78 79 80 0
-81 -82 0
-81 -83 0
-81 -84 0
-81 -85 0
-82 -83 0
-82 -84 0
-82 -85 0
-83 -84 0
-83 -85 0
-84 -85 0
81 82 83 84 85 0
-86 -87 0
-86 -88 0
-86 -89 0
-86 -90 0
-87 -88 0
-87 -89 0
-87 -90 0
-88 -89 0
-88 -90 0
-89 -90 0
86 87 88 89 90 0
-91 -92 0
-91 -93 0
-91 -94 0
-91 -95 0
-92 -93 0
-92 -94 0
-92 -95 0
-93 -94 0
-93 -95 0
-94 -95 0
91 92 93 94 95 0
-96 -97 0
-96 -98 0
-96 -99 0
-96 -100 0
-97 -98 0
-97 -99 0
-97 -100 0
-98 -99 0
-98 -100 0
-99 -100 0
96 97 98 99 100 0
-101 -102 0
-101 -103 0
-101 -104 0
-101 -105 0
-102 -103 0
-102 -104 0
-102 -105 0
-103 -104 0
-103 -105 0
-104 -105 0
101 102 103 104 105 0
-106 -107 0
-106 -108 0
-106 -109 0
-106 -110 0
-107 -108 0
-107 -109 0
-107 -110 0
-108 -109 0
-108 -110 0
-109 -110 0
106 107 108 109 110 0
-111 -112 0
-111 -113 0
-111 -114 0
-111 -115 0
-112 -113 0
-112 -114 0
-112 -115 0
-113 -114 0
-113 -115 0
-114 -115 0
111 112 113 114 115 0
-116 -117 0
-116 -118 0
-116 -119 0
-116 -120 0
-117 -118 0
-117 -119 0
-117 -120 0
-118 -119 0
-118 -120 0
-119 -120 0
116 117 118 119 120 0
-121 -122 0
-121 -123 0
-121 -124 0
-121 -125 0
-122 -123 0
-122 -124 0
-122 -125 0
-123 -124 0
-123 -125 0
-124 -125 0
121 122 123 124 125 0
-126 -127 0
-126 -128 0
-126 -129 0
-126 -130 0
-127 -128 0
-127 -129 0
-127 -130 0
-128 -129 0
-128 -130 0
-129 -130 0
126 127 128 129 130 0
-131 -132 0
-131 -133 0
-131 -134 0
-131 -135 0
-132 -133 0
-132 -134 0
-132 -135 0
-133 -134 0
-133 -135 0
-134 -135 0
131 132 133 134 135 0
-136 -137 0
-136 -138 0
-136 -139 0
-136 -140 0
-137 -138 0
-137 -139 0
-137 -140 0
-138 -139 0
-138 -140 0
-139 -140 0
136 137 138 139 140 0
-141 -142 0
-141 -143 0
-141 -144 0
-141 -145 0
-142 -143 0
-142 -144 0
-142 -145 0
-143 -144 0
-143 -145 0
-144 -145 0
141 142 143 144 145 0
-146 -147 0
-146 -148 0
-146 -149 0
-146 -150 0
-147 -148 0
-147 -149 0
-147 -150 0
-148 -149 0
-148 -150 0
-149 -150 0
146 147 148 149 150 0
-151 -152 0
-151 -153 0
-151 -154 0
-151 -155 0
-152 -153 0
-152 -154 0
-152 -155 0
-153 -154 0
-153 -155 0
-154 -155 0
151 152 153 154 155 0
-156 -157 0
-156 -158 0
-156 -159 0
-156 -160 0
-157 -158 0
-157 -159 0
-157 -160 0
-158 -159 0
-158 -160 0
-159 -160 0
156 157 158 159 160 0
-161 -162 0
-161 -163 0
-161 -164 0
-161 -165 0
-162 -163 0
-162 -164 0
-162 -165 0
-163 -164 0
-163 -165 0
-164 -165 0
161 162 163 164 165 0
-166 -167 0
-166 -168 0
-166 -169 0
-166 -170 0
-167 -168 0
-167 -169 0
-167 -170 0
-168 -169 0
-168 -170 0
-169 -170 0
166 167 168 169 170 0
-171 -172 0
-171 -173 0
-171 -174 0
-171 -175 0
-172 -173 0
-172 -174 0
-172 -175 0
-173 -174 0
-173 -175 0
-174 -175 0
171 172 173 174 175 0
-176 -177 0
-176 -178 0
-176 -179 0
-176 -180 0
-177 -178 0
-177 -179 0
-177 -180 0
-178 -179 0
-178 -180 0
-179 -180 0
176 177 178 179 180 0
-181 -182 0
-181 -183 0
-181 -184 0
-181 -185 0
-182 -183 0
-182 -184 0
-182 -185 0
-183 -184 0
-183 -185 0
-184 -185 0
181 182 183 184 185 0
-186 -187 0
-186 -188 0
-186 -189 0
-186 -190 0
-187 -188 0
-187 -189 0
-187 -190 0
-188 -189 0
-188 -190 0
-189 -190 0
186 187 188 189 190 0
-191 -192 0
-191 -193 0
-191 -194 0
-191 -195 0
-192 -193 0
-192 -194 0
-192 -195 0
-193 -194 0
-193 -195 0
-194 -195 0
191 192 193 194 195 0
-196 -197 0
-196 -198 0
-196 -199 0
-196 -200 0
-197 -198 0
-197 -199 0
-197 -200 0
-198 -199 0
-198 -200 0
-199 -200 0
196 197 198 199 200 0
-201 -202 0
-201 -203 0
-201 -204 0
-201 -205 0
-202 -203 0
-202 -204 0
-202 -205 0
-203 -204 0
-203 -205 0
-204 -205 0
201 202 203 204 205 0
-206 -207 0
-206 -208 0
-206 -209 0
-206 -210 0
-207 -208 0
-207 -209 0
-207 -210 0
-208 -209 0
-208 -210 0
-209 -210 0
206 207 208 209 210 0
-211 -212 0
-211 -213 0
-211 -214 0
-211 -215 0
-212 -213 0
-212 -214 0
-212 -215 0
-213 -214 0
-213 -215 0
-214 -215 0
211 212 213 214 215 0
-216 -217 0
-216 -218 0
-216 -219 0
-216 -220 0
-217 -218 0
-217 -219 0
-217 -220 0
-218 -219 0
-218 -220 0
-219 -220 0
216 217 218 219 220 0
-221 -222 0
-221 -223 0
-221 -224 0
-221 -225 0
-222 -223 0
-222 -224 0
-222 -225 0
-223 -224 0
-223 -225 0
-224 -225 0
221 222 223 224 225 0
-226 -227 0
-226 -228 0
-226 -229 0
-226 -230 0
-227 -228 0
-227 -229 0
-227 -230 0
-228 -229 0
-228 -230 0
-229 -230 0
226 227 228 229 230 0
-231 -232 0
-231 -233 0
-231 -234 0
-231 -235 0
-232 -233 0
-232 -234 0
-232 -235 0
-233 -234 0
-233 -235 0
-234 -235 0
231 232 233 234 235 0
-236 -237 0
-236 -238 0
-236 -239 0
-236 -240 0
-237 -238 0
-237 -239 0
-237 -240 0
-238 -239 0
-238 -240 0
-239 -240 0
236 237 238 239 240 0
-241 -242 0
-241 -243 0
-241 -244 0
-241 -245 0
-242 -243 0
-242 -244 0
-242 -245 0
-243 -244 0
-243 -245 0
-244 -245 0
241 242 243 244 245 0
-246 -247 0
-246 -248 0
-246 -249 0
-246 -250 0
-247 -248 0
-247 -249 0
-247 -250 0
-248 -249 0
-248 -250 0
-249 -250 0
246 247 248 249 250 0
-251 -252 0
-251 -253 0
-251 -254 0
-251 -255 0
-252 -253 0
-252 -254 0
-252 -255 0
-253 -254 0
-253 -255 0
-254 -255 0
251 252 253 254 255 0
-256 -257 0
-256 -258 0
-256 -259 0
-256 -260 0
-257 -258 0
-257 -259 0
-257 -260 0
-258 -259 0
-258 -260 0
-259 -260 0
256 257 258 259 260 0
-261 -262 0
-261 -263 0
-261 -264 0
-261 -265 0
-262 -263 0
-262 -264 0
-262 -265 0
-263 -264 0
-263 -265 0
-264 -265 0
261 262 263 264 265 0
-266 -267 0
-266 -268 0
-266 -269 0
-266 -270 0
-267 -268 0
-267 -269 0
-267 -270 0
-268 -269 0
-268 -270 0
-269 -270 0
266 267 268 269 270 0
-271 -272 0
-271 -273 0
-271 -274 0
-271 -275 0
-272 -273 0
-272 -274 0
-272 -275 0
-273 -274 0
-273 -275 0
-274 -275 0
271 272 273 274 275 0
-276 -277 0
-276 -278 0
-276 -279 0
-276 -280 0
-277 -278 0
-277 -279 0
-277 -280 0
-278 -279 0
-278 -280 0
-279 -280 0
276 277 278 279 280 0
-281 -282 0
-281 -283 0
-281 -284 0
-281 -285 0
-282 -283 0
-282 -284 0
-282 -285 0
-283 -284 0
-283 -285 0
-284 -285 0
281 282 283 284 285 0
-286 -287 0
-286 -288 0
-286 -289 0
-286 -290 0
-287 -288 0
-287 -289 0
-287 -290 0
-288 -289 0
-288 -290 0
-289 -290 0
286 287 288 289 290 0
-291 -292 0
-291 -293 0
-291 -294 0
-291 -295 0
-292 -293 0
-292 -294 0
-292 -295 0
-293 -294 0
-293 -295 0
-294 -295 0
291 292 293 294 295 0
-296 -297 0
-296 -298 0
-296 -299 0
-296 -300 0
-297 -298 0
-297 -299 0
-297 -300 0
-298 -299 0
-298 -300 0
-299 -300 0
296 297 298 299 300 0
-301 -302 0
-301 -303 0
-301 -304 0
-301 -305 0
-302 -303 0
-302 -304 0
-302 -305 0
-303 -304 0
-303 -305 0
-304 -305 0
301 302 303 304 305 0
-306 -307 0
-306 -308 0
-306 -309 0
-306 -310 0
-307 -308 0
-307 -309 0
-307 -310 0
-308 -309 0
-308 -310 0
-309 -310 0
306 307 308 309 310 0
-311 -312 0
-311 -313 0
-311 -314 0
-311 -315 0
-312 -313 0
-312 -314 0
-312 -315 0
-313 -314 0
-313 -315 0
-314 -315 0
311 312 313 314 315 0
-316 -317 0
-316 -318 0
-316 -319 0
-316 -320 0
-317 -318 0
-317 -319 0
-317 -320 0
-318 -319 0
-318 -320 0
-319 -320 0
316 317 318 319 320 0
-321 -322 0
-321 -323 0
-321 -324 0
-321 -325 0
-322 -323 0
-322 -324 0
-322 -325 0
-323 -324 0
-323 -325 0
-324 -325 0
321 322 323 324 325 0
-326 -327 0
-326 -328 0
-326 -329 0
-326 -330 0
-327 -328 0
-327 -329 0
-327 -330 0
-328 -329 0
-328 -330 0
-329 -330 0
326 327 328 329 330 0
-331 -332 0
-331 -333 0
-331 -334 0
-331 -335 0
-332 -333 0
-332 -334 0
-332 -335 0
-333 -334 0
-333 -335 0
-334 -335 0
331 332 333 334 335 0
-336 -337 0
-336 -338 0
-336 -339 0
-336 -340 0
-337 -338 0
-337 -339 0
-337 -340 0
-338 -339 0
-338 -340 0
-339 -340 0
336 337 338 339 340 0
-341 -342 0
-341 -343 0
-341 -344 0
-341 -345 0
-342 -343 0
-342 -344 0
-342 -345 0
-343 -344 0
-343 -345 0
-344 -345 0
341 342 343 344 345 0
-346 -347 0
-346 -348 0
-346 -349 0
-346 -350 0
-347 -348 0
-347 -349 0
-347 -350 0
-348 -349 0
-348 -350 0
-349 -350 0
346 347 348 349 350 0
-351 -352 0
-351 -353 0
-351 -354 0
-351 -355 0
-352 -353 0
-352 -354 0
-352 -355 0
-353 -354 0
-353 -355 0
-354 -355 0
351 352 353 354 355 0
-356 -357 0
-356 -358 0
-356 -359 0
-356 -360 0
-357 -358 0
-357 -359 0
-357 -360 0
-358 -359 0
-358 -360 0
-359 -360 0
356 357 358 359 360 0
-361 -362 0
-361 -363 0
-361 -364 0
-361 -365 0
-362 -363 0
-362 -364 0
-362 -365 0
-363 -364 0
-363 -365 0
-364 -365 0
361 362 363 364 365 0
-366 -367 0
-366 -368 0
-366 -369 0
-366 -370 0
-367 -368 0
-367 -369 0
-367 -370 0
-368 -369 0
-368 -370 0
-369 -370 0
366 367 368 369 370 0
-371 -372 0
-371 -373 0
-371 -374 0
-371 -375 0
-372 -373 0
-372 -374 0
-372 -375 0
-373 -374 0
-373 -375 0
-374 -375 0
371 372 373 374 375 0
-376 -377 0
-376 -378 0
-376 -379 0
-376 -380 0
-377 -378 0
-377 -379 0
-377 -380 0
-378 -379 0
-378 -380 0
-379 -380 0
376 377 378 379 380 0
-381 -382 0
-381 -383 0
-381 -384 0
-381 -385 0
-382 -383 0
-382 -384 0
-382 -385 0
-383 -384 0
-383 -385 0
-384 -385 0
381 382 383 384 385 0
-386 -387 0
-386 -388 0
-386 -389 0
-386 -390 0
-387 -388 0
-387 -389 0
-387 -390 0
-388 -389 0
-388 -390 0
-389 -390 0
386 387 388 389 390 0
-391 -392 0
-391 -393 0
-391 -394 0
-391 -395 0
-392 -393 0
-392 -394 0
-392 -395 0
-393 -394 0
-393 -395 0
-394 -395 0
391 392 393 394 395 0
-396 -397 0
-396 -398 0
-396 -399 0
-396 -400 0
-397 -398 0
-397 -399 0
-397 -400 0
-398 -399 0
-398 -400 0
-399 -400 0
396 397 398 399 400 0
-401 -402 0
-401 -403 0
-401 -404 0
-401 -405 0
-402 -403 0
-402 -404 0
-402 -405 0
-403 -404 0
-403 -405 0
-404 -405 0
401 402 403 404 405 0
-406 -407 0
-406 -408 0
-406 -409 0
-406 -410 0
-407 -408 0
-407 -409 0
-407 -410 0
-408 -409 0
-408 -410 0
-409 -410 0
406 407 408 409 410 0
-411 -412 0
-411 -413 0
-411 -414 0
-411 -415 0
-412 -413 0
-412 -414 0
-412 -415 0
-413 -414 0
-413 -415 0
-414 -415 0
411 412 413 414 415 0
-416 -417 0
-416 -418 0
-416 -419 0
-416 -420 0
-417 -418 0
-417 -419 0
-417 -420 0
-418 -419 0
-418 -420 0
-419 -420 0
416 417 418 419 420 0
-421 -422 0
-421 -423 0
-421 -424 0
-421 -425 0
-422 -423 0
-422 -424 0
-422 -425 0
-423 -424 0
-423 -425 0
-424 -425 0
421 422 423 424 425 0
-426 -427 0
-426 -428 0
-426 -429 0
-426 -430 0
-427 -428 0
-427 -429 0
-427 -430 0
-428 -429 0
-428 -430 0
-429 -430 0
426 427 428 429 430 0
-431 -432 0
-431 -433 0
-431 -434 0
-431 -435 0
-432 -433 0
-432 -434 0
-432 -435 0
-433 -434 0
-433 -435 0
-434 -435 0
431 432 433 434 435 0
-436 -437 0
-436 -438 0
-436 -439 0
-436 -440 0
-437 -438 0
-437 -439 0
-437 -440 0
-438 -439 0
-438 -440 0
-439 -440 0
436 437 438 439 440 0
-441 -442 0
-441 -443 0
-441 -444 0
-441 -445 0
-442 -443 0
-442 -444 0
-442 -445 0
-443 -444 0
-443 -445 0
-444 -445 0
441 442 443 444 445 0
-446 -447 0
-446 -448 0
-446 -449 0
-446 -450 0
-447 -448 0
-447 -449 0
-447 -450 0
-448 -449 0
-448 -450 0
-449 -450 0
446 447 448 449 450 0
-451 -452 0
-451 -453 0
-451 -454 0
-451 -455 0
-452 -453 0
-452 -454 0
-452 -455 0
-453 -454 0
-453 -455 0
-454 -455 0
451 452 453 454 455 0
-456 -457 0
-456 -458 0
-456 -459 0
-456 -460 0
-457 -458 0
-457 -459 0
-457 -460 0
-458 -459 0
-458 -460 0
-459 -460 0
456 457 458 459 460 0
-461 -462 0
-461 -463 0
-461 -464 0
-461 -465 0
-462 -463 0
-462 -464 0
-462 -465 0
-463 -464 0
-463 -465 0
-464 -465 0
461 462 463 464 465 0
-466 -467 0
-466 -468 0
-466 -469 0
-466 -470 0
-467 -468 0
-467 -469 0
-467 -470 0
-468 -469 0
-468 -470 0
-469 -470 0
466 467 468 469 470 0
-471 -472 0
-471 -473 0
-471 -474 0
-471 -475 0
-472 -473 0
-472 -474 0
-472 -475 0
-473 -474 0
-473 -475 0
-474 -475 0
471 472 473 474 475 0
-476 -477 0
-476 -478 0
-476 -479 0
-476 -480 0
-477 -478 0
-477 -479 0
-477 -480 0
-478 -479 0
-478 -480 0
-479 -480 0
476 477 478 479 480 0
-481 -482 0
-481 -483 0
-481 -484 0
-481 -485 0
-482 -483 0
-482 -484 0
-482 -485 0
-483 -484 0
-483 -485 0
-484 -485 0
481 482 483 484 485 0
-486 -487 0
-486 -488 0
-486 -489 0
-486 -490 0
-487 -488 0
-487 -489 0
-487 -490 0
-488 -489 0
-488 -490 0
-489 -490 0
486 487 488 489 490 0
-491 -492 0
-491 -493 0
-491 -494 0
-491 -495 0
-492 -493 0
-492 -494 0
-492 -495 0
-493 -494 0
-493 -495 0
-494 -495 0
491 492 493 494 495 0
-496 -497 0
-496 -498 0
-496 -499 0
-496 -500 0
-497 -498 0
-497 -499 0
-497 -500 0
-498 -499 0
-498 -500 0
-499 -500 0
496 497 498 499 500 0
-16 -36 0
-17 -37 0
-18 -38 0
-19 -39 0
-20 -40 0
-31 -36 0
-32 -37 0
-33 -38 0
-34 -39 0
-35 -40 0
-31 -46 0
-32 -47 0
-33 -48 0
-34 -49 0
-35 -50 0
-36 -41 0
-37 -42 0
-38 -43 0
-39 -44 0
-40 -45 0
-41 -46 0
-42 -47 0
-43 -48 0
-44 -49 0
-45 -50 0
-51 -56 0
-52 -57 0
-53 -58 0
-54 -59 0
-55 -60 0
-81 -101 0
-82 -102 0
-83 -103 0
-84 -104 0
-85 -105 0
-86 -101 0
-87 -102 0
-88 -103 0
-89 -104 0
-90 -105 0
-101 -111 0
-102 -112 0
-103 -113 0
-104 -114 0
-105 -115 0
-146 -151 0
-147 -152 0
-148 -153 0
-149 -154 0
-150 -155 0
-171 -186 0
-172 -187 0
-173 -188 0
-174 -189 0
-175 -190 0
-216 -236 0
-217 -237 0
-218 -238 0
-219 -239 0
-220 -240 0
-261 -271 0
-262 -272 0
-263 -273 0
-264 -274 0
-265 -275 0
-286 -291 0
-287 -292 0
-288 -293 0
-289 -294 0
-290 -295 0
-351 -366 0
-352 -367 0
-353 -368 0
-354 -369 0
-355 -370 0
-361 -381 0
-362 -382 0
-363 -383 0
-364 -384 0
-365 -385 0
-401 -416 0
-402 -417 0
-403 -418 0
-404 -419 0
-405 -420 0
-476 -481 0
-477 -482 0
-478 -483 0
-479 -484 0
-480 -485 0
-486 -491 0
-487 -492 0
-488 -493 0
-489 -494 0
-490 -495 0
-1 -71 0
-2 -72 0
-3 -73 0
-4 -74 0
-5 -75 0
-1 -126 0
-2 -127 0
-3 -128 0
-4 -129 0
-5 -130 0
-1 -151 0
-2 -152 0
-3 -153 0
-4 -154 0
-5 -155 0
-1 -161 0
-2 -162 0
-3 -163 0
-4 -164 0
-5 -165 0
-1 -261 0
-2 -262 0
-3 -263 0
-4 -264 0
-5 -265 0
-1 -326 0
-2 -327 0
-3 -328 0
-4 -329 0
-5 -330 0
-1 -331 0
-2 -332 0
-3 -333 0
-4 -334 0
-5 -335 0
-1 -346 0
-2 -347 0
-3 -348 0
-4 -349 0
-5 -350 0
-1 -391 0
-2 -392 0
-3 -393 0
-4 -394 0
-5 -395 0
-1 -451 0
-2 -452 0
-3 -453 0
-4 -454 0
-5 -455 0
-6 -101 0
-7 -102 0
-8 -103 0
-9 -104 0
-10 -105 0
-6 -301 0
-7 -302 0
-8 -303 0
-9 -304 0
-10 -305 0
-6 -326 0
-7 -327 0
-8 -328 0
-9 -329 0
-10 -330 0
-6 -466 0
-7 -467 0
-8 -468 0
-9 -469 0
-10 -470 0
-11 -111 0
-12 -112 0
-13 -113 0
-14 -114 0
-15 -115 0
-11 -126 0
-12 -127 0
-13 -128 0
-14 -129 0
-15 -130 0
-11 -316 0
-12 -317 0
-13 -318 0
-14 -319 0
-15 -320 0
-11 -411 0
-12 -412 0
-13 -413 0
-14 -414 0
-15 -415 0
-16 -51 0
-17 -52 0
-18 -53 0
-19 -54 0
-20 -55 0
-16 -121 0
-17 -122 0
-18 -123 0
-19 -124 0
-20 -125 0
-16 -186 0
-17 -187 0
-18 -188 0
-19 -189 0
-20 -190 0
-16 -216 0
-17 -217 0
-18 -218 0
-19 -219 0
-20 -220 0
-16 -251 0
-17 -252 0
-18 -253 0
-19 -254 0
-20 -255 0
-16 -291 0
-17 -292 0
-18 -293 0
-19 -294 0
-20 -295 0
-16 -391 0
-17 -392 0
-18 -393 0
-19 -394 0
-20 -395 0
-16 -436 0
-17 -437 0
-18 -438 0
-19 -439 0
-20 -440 0
-16 -451 0
-17 -452 0
-18 -453 0
-19 -454 0
-20 -455 0
-21 -76 0
-22 -77 0
-23 -78 0
-24 -79 0
-25 -80 0
-21 -81 0
-22 -82 0
-23 -83 0
-24 -84 0
-25 -85 0
-21 -231 0
-22 -232 0
-23 -233 0
-24 -234 0
-25 -235 0
-21 -296 0
-22 -297 0
-23 -298 0
-24 -299 0
-25 -300 0
-21 -326 0
-22 -327 0
-23 -328 0
-24 -329 0
-25 -330 0
-21 -376 0
-22 -377 0
-23 -378 0
-24 -379 0
-25 -380 0
-21 -426 0
-22 -427 0
-23 -428 0
-24 -429 0
-25 -430 0
-21 -441 0
-22 -442 0
-23 -443 0
-24 -444 0
-25 -445 0
-21 -466 0
-22 -467 0
-23 -468 0
-24 -469 0
-25 -470 0
-26 -56 0
-27 -57 0
-28 -58 0
-29 -59 0
-30 -60 0
-26 -76 0
-27 -77 0
-28 -78 0
-29 -79 0
-30 -80 0
-26 -81 0
-27 -82 0
-28 -83 0
-29 -84 0
-30 -85 0
-26 -111 0
-27 -112 0
-28 -113 0
-29 -114 0
-30 -115 0
-26 -136 0
-27 -137 0
-28 -138 0
-29 -139 0
-30 -140 0
-26 -201 0
-27 -202 0
-28 -203 0
-29 -204 0
-30 -205 0
-26 -221 0
-27 -222 0
-28 -223 0
-29 -224 0
-30 -225 0
-26 -236 0
-27 -237 0
-28 -238 0
-29 -239 0
-30 -240 0
-26 -276 0
-27 -277 0
-28 -278 0
-29 -279 0
-30 -280 0
-26 -326 0
-27 -327 0
-28 -328 0
-29 -329 0
-30 -330 0
-26 -356 0
-27 -357 0
-28 -358 0
-29 -359 0
-30 -360 0
-26 -391 0
-27 -392 0
-28 -393 0
-29 -394 0
-30 -395 0
-26 -416 0
-27 -417 0
-28 -418 0
-29 -419 0
-30 -420 0
-26 -461 0
-27 -462 0
-28 -463 0
-29 -464 0
-30 -465 0
-31 -66 0
-32 -67 0
-33 -68 0
-34 -69 0
-35 -70 0
-31 -201 0
-32 -202 0
-33 -203 0
-34 -204 0
-35 -205 0
-31 -346 0
-32 -347 0
-33 -348 0
-34 -349 0
-35 -350 0
-31 -391 0
-32 -392 0
-33 -393 0
-34 -394 0
-35 -395 0
-36 -71 0
-37 -72 0
-38 -73 0
-39 -74 0
-40 -75 0
-36 -241 0
-37 -242 0
-38 -243 0
-39 -244 0
-40 -245 0
-36 -286 0
-37 -287 0
-38 -288 0
-39 -289 0
-40 -290 0
-36 -301 0
-37 -302 0
-38 -303 0
-39 -304 0
-40 -305 0
-36 -306 0
-37 -307 0
-38 -308 0
-39 -309 0
-40 -310 0
-36 -311 0
-37 -312 0
-38 -313 0
-39 -314 0
-40 -315 0
-36 -366 0
-37 -367 0
-38 -368 0
-39 -369 0
-40 -370 0
-36 -411 0
-37 -412 0
-38 -413 0
-39 -414 0
-40 -415 0
-36 -436 0
-37 -437 0
-38 -438 0
-39 -439 0
-40 -440 0
-36 -471 0
-37 -472 0
-38 -473 0
-39 -474 0
-40 -475 0
-41 -136 0
-42 -137 0
-43 -138 0
-44 -139 0
-45 -140 0
-41 -356 0
-42 -357 0
-43 -358 0
-44 -359 0
-45 -360 0
-41 -381 0
-42 -382 0
-43 -383 0
-44 -384 0
-45 -385 0
-41 -396 0
-42 -397 0
-43 -398 0
-44 -399 0
-45 -400 0
-41 -406 0
-42 -407 0
-43 -408 0
-44 -409 0
-45 -410 0
-41 -451 0
-42 -452 0
-43 -453 0
-44 -454 0
-45 -455 0
-46 -76 0
-47 -77 0
-48 -78 0
-49 -79 0
-50 -80 0
-46 -146 0
-47 -147 0
-48 -148 0
-49 -149 0
-50 -150 0
-46 -226 0
-47 -227 0
-48 -228 0
-49 -229 0
-50 -230 0
-46 -236 0
-47 -237 0
-48 -238 0
-49 -239 0
-50 -240 0
-46 -281 0
-47 -282 0
-48 -283 0
-49 -284 0
-50 -285 0
-46 -446 0
-47 -447 0
-48 -448 0
-49 -449 0
-50 -450 0
-46 -451 0
-47 -452 0
-48 -453 0
-49 -454 0
-50 -455 0
-46 -456 0
-47 -457 0
-48 -458 0
-49 -459 0
-50 -460 0
-46 -461 0
-47 -462 0
-48 -463 0
-49 -464 0
-50 -465 0
-51 -151 0
-52 -152 0
-53 -153 0
-54 -154 0
-55 -155 0
-51 -226 0
-52 -227 0
-53 -228 0
-54 -229 0
-55 -230 0
-51 -376 0
-52 -377 0
-53 -378 0
-54 -379 0
-55 -380 0
-51 -461 0
-52 -462 0
-53 -463 0
-54 -464 0
-55 -465 0
-51 -491 0
-52 -492 0
-53 -493 0
-54 -494 0
-55 -495 0
-56 -111 0
-57 -112 0
-58 -113 0
-59 -114 0
-60 -115 0
-56 -176 0
-57 -177 0
-58 -178 0
-59 -179 0
-60 -180 0
-56 -191 0
-57 -192 0
-58 -193 0
-59 -194 0
-60 -195 0
-56 -196 0
-57 -197 0
-58 -198 0
-59 -199 0
-60 -200 0
-56 -201 0
-57 -202 0
-58 -203 0
-59 -204 0
-60 -205 0
-56 -321 0
-57 -322 0
-58 -323 0
-59 -324 0
-60 -325 0
-56 -436 0
-57 -437 0
-58 -438 0
-59 -439 0
-60 -440 0
-56 -446 0
-57 -447 0
-58 -448 0
-59 -449 0
-60 -450 0
-61 -216 0
-62 -217 0
-63 -218 0
-64 -219 0
-65 -220 0
-61 -246 0
-62 -247 0
-63 -248 0
-64 -249 0
-65 -250 0
-61 -251 0
-62 -252 0
-63 -253 0
-64 -254 0
-65 -255 0
-61 -321 0
-62 -322 0
-63 -323 0
-64 -324 0
-65 -325 0
-61 -326 0
-62 -327 0
-63 -328 0
-64 -329 0
-65 -330 0
-61 -341 0
-62 -342 0
-63 -343 0
-64 -344 0
-65 -345 0
-61 -351 0
-62 -352 0
-63 -353 0
-64 -354 0
-65 -355 0
-61 -391 0
-62 -392 0
-63 -393 0
-64 -394 0
-65 -395 0
-66 -176 0
-67 -177 0
-68 -178 0
-69 -179 0
-70 -180 0
-66 -421 0
-67 -422 0
-68 -423 0
-69 -424 0
-70 -425 0
-66 -441 0
-67 -442 0
-68 -443 0
-69 -444 0
-70 -445 0
-71 -186 0
-72 -187 0
-73 -188 0
-74 -189 0
-75 -190 0
-71 -191 0
-72 -192 0
-73 -193 0
-74 -194 0
-75 -195 0
-71 -201 0
-72 -202 0
-73 -203 0
-74 -204 0
-75 -205 0
-71 -271 0
-72 -272 0
-73 -273 0
-74 -274 0
-75 -275 0
-71 -281 0
-72 -282 0
-73 -283 0
-74 -284 0
-75 -285 0
-71 -401 0
-72 -402 0
-73 -403 0
-74 -404 0
-75 -405 0
-71 -421 0
-72 -422 0
-73 -423 0
-74 -424 0
-75 -425 0
-71 -451 0
-72 -452 0
-73 -453 0
-74 -454 0
-75 -455 0
-71 -466 0
-72 -467 0
-73 -468 0
-74 -469 0
-75 -470 0
-71 -481 0
-72 -482 0
-73 -483 0
-74 -484 0
-75 -485 0
-76 -251 0
-77 -252 0
-78 -253 0
-79 -254 0
-80 -255 0
-76 -336 0
-77 -337 0
-78 -338 0
-79 -339 0
-80 -340 0
-76 -396 0
-77 -397 0
-78 -398 0
-79 -399 0
-80 -400 0
-76 -401 0
-77 -402 0
-78 -403 0
-79 -404 0
-80 -405 0
-76 -481 0
-77 -482 0
-78 -483 0
-79 -484 0
-80 -485 0
-81 -106 0
-82 -107 0
-83 -108 0
-84 -109 0
-85 -110 0
-81 -221 0
-82 -222 0
-83 -223 0
-84 -224 0
-85 -225 0
-81 -226 0
-82 -227 0
-83 -228 0
-84 -229 0
-85 -230 0
-81 -266 0
-82 -267 0
-83 -268 0
-84 -269 0
-85 -270 0
-81 -276 0
-82 -277 0
-83 -278 0
-84 -279 0
-85 -280 0
-81 -346 0
-82 -347 0
-83 -348 0
-84 -349 0
-85 -350 0
-81 -366 0
-82 -367 0
-83 -368 0
-84 -369 0
-85 -370 0
-81 -411 0
-82 -412 0
-83 -413 0
-84 -414 0
-85 -415 0
-86 -126 0
-87 -127 0
-88 -128 0
-89 -129 0
-90 -130 0
-86 -171 0
-87 -172 0
-88 -173 0
-89 -174 0
-90 -175 0
-86 -196 0
-87 -197 0
-88 -198 0
-89 -199 0
-90 -200 0
-86 -221 0
-87 -222 0
-88 -223 0
-89 -224 0
-90 -225 0
-86 -296 0
-87 -297 0
-88 -298 0
-89 -299 0
-90 -300 0
-86 -341 0
-87 -342 0
-88 -343 0
-89 -344 0
-90 -345 0
-86 -411 0
-87 -412 0
-88 -413 0
-89 -414 0
-90 -415 0
-91 -141 0
-92 -142 0
-93 -143 0
-94 -144 0
-95 -145 0
-91 -326 0
-92 -327 0
-93 -328 0
-94 -329 0
-95 -330 0
-91 -466 0
-92 -467 0
-93 -468 0
-94 -469 0
-95 -470 0
-96 -171 0
-97 -172 0
-98 -173 0
-99 -174 0
-100 -175 0
-96 -181 0
-97 -182 0
-98 -183 0
-99 -184 0
-100 -185 0
-96 -266 0
-97 -267 0
-98 -268 0
-99 -269 0
-100 -270 0
-96 -286 0
-97 -287 0
-98 -288 0
-99 -289 0
-100 -290 0
-96 -436 0
-97 -437 0
-98 -438 0
-99 -439 0
-100 -440 0
-96 -476 0
-97 -477 0
-98 -478 0
-99 -479 0
-100 -480 0
-101 -266 0
-102 -267 0
-103 -268 0
-104 -269 0
-105 -270 0
-101 -301 0
-102 -302 0
-103 -303 0
-104 -304 0
-105 -305 0
-101 -361 0
-102 -362 0
-103 -363 0
-104 -364 0
-105 -365 0
-101 -451 0
-102 -452 0
-103 -453 0
-104 -454 0
-105 -455 0
-101 -466 0
-102 -467 0
-103 -468 0
-104 -469 0
-105 -470 0
-101 -476 0
-102 -477 0
-103 -478 0
-104 -479 0
-105 -480 0
-106 -181 0
-107 -182 0
-108 -183 0
-109 -184 0
-110 -185 0
-106 -296 0
-107 -297 0
-108 -298 0
-109 -299 0
-110 -300 0
-106 -391 0
-107 -392 0
-108 -393 0
-109 -394 0
-110 -395 0
-106 -466 0
-107 -467 0
-108 -468 0
-109 -469 0
-110 -470 0
-106 -471 0
-107 -472 0
-108 -473 0
-109 -474 0
-110 -475 0
-111 -201 0
-112 -202 0
-113 -203 0
-114 -204 0
-115 -205 0
-111 -226 0
-112 -227 0
-113 -228 0
-114 -229 0
-115 -230 0
-111 -246 0
-112 -247 0
-113 -248 0
-114 -249 0
-115 -250 0
-111 -351 0
-112 -352 0
-113 -353 0
-114 -354 0
-115 -355 0
-111 -381 0
-112 -382 0
-113 -383 0
-114 -384 0
-115 -385 0
-111 -386 0
-112 -387 0
-113 -388 0
-114 -389 0
-115 -390 0
-116 -221 0
-117 -222 0
-118 -223 0
-119 -224 0
-120 -225 0
-116 -226 0
-117 -227 0
-118 -228 0
-119 -229 0
-120 -230 0
-116 -236 0
-117 -237 0
-118 -238 0
-119 -239 0
-120 -240 0
-116 -296 0
-117 -297 0
-118 -298 0
-119 -299 0
-120 -300 0
-116 -341 0
-117 -342 0
-118 -343 0
-119 -344 0
-120 -345 0
-116 -346 0
-117 -347 0
-118 -348 0
-119 -349 0
-120 -350 0
-116 -351 0
-117 -352 0
-118 -353 0
-119 -354 0
-120 -355 0
-116 -426 0
-117 -427 0
-118 -428 0
-119 -429 0
-120 -430 0
-116 -476 0
-117 -477 0
-118 -478 0
-119 -479 0
-120 -480 0
-121 -171 0
-122 -172 0
-123 -173 0
-124 -174 0
-125 -175 0
-121 -261 0
-122 -262 0
-123 -263 0
-124 -264 0
-125 -265 0
-121 -316 0
-122 -317 0
-123 -318 0
-124 -319 0
-125 -320 0
-121 -346 0
-122 -347 0
-123 -348 0
-124 -349 0
-125 -350 0
-121 -386 0
-122 -387 0
-123 -388 0
-124 -389 0
-125 -390 0
-121 -486 0
-122 -487 0
-123 -488 0
-124 -489 0
-125 -490 0
-126 -206 0
-127 -207 0
-128 -208 0
-129 -209 0
-130 -210 0
-126 -256 0
-127 -257 0
-128 -258 0
-129 -259 0
-130 -260 0
-126 -341 0
-127 -342 0
-128 -343 0
-129 -344 0
-130 -345 0
-131 -216 0
-132 -217 0
-133 -218 0
-134 -219 0
-135 -220 0
-131 -241 0
-132 -242 0
-133 -243 0
-134 -244 0
-135 -245 0
-131 -326 0
-132 -327 0
-133 -328 0
-134 -329 0
-135 -330 0
-131 -346 0
-132 -347 0
-133 -348 0
-134 -349 0
-135 -350 0
-131 -376 0
-132 -377 0
-133 -378 0
-134 -379 0
-135 -380 0
-131 -441 0
-132 -442 0
-133 -443 0
-134 -444 0
-135 -445 0
-131 -466 0
-132 -467 0
-133 -468 0
-134 -469 0
-135 -470 0
-136 -281 0
-137 -282 0
-138 -283 0
-139 -284 0
-140 -285 0
-136 -291 0
-137 -292 0
-138 -293 0
-139 -294 0
-140 -295 0
-136 -301 0
-137 -302 0
-138 -303 0
-139 -304 0
-140 -305 0
-136 -326 0
-137 -327 0
-138 -328 0
-139 -329 0
-140 -330 0
-136 -421 0
-137 -422 0
-138 -423 0
-139 -424 0
-140 -425 0
-136 -431 0
-137 -432 0
-138 -433 0
-139 -434 0
-140 -435 0
-136 -486 0
-137 -487 0
-138 -488 0
-139 -489 0
-140 -490 0
-136 -496 0
-137 -497 0
-138 -498 0
-139 -499 0
-140 -500 0
-141 -206 0
-142 -207 0
-143 -208 0
-144 -209 0
-145 -210 0
-141 -301 0
-142 -302 0
-143 -303 0
-144 -304 0
-145 -305 0
-146 -281 0
-147 -282 0
-148 -283 0
-149 -284 0
-150 -285 0
-146 -391 0
-147 -392 0
-148 -393 0
-149 -394 0
-150 -395 0
-146 -416 0
-147 -417 0
-148 -418 0
-149 -419 0
-150 -420 0
-146 -446 0
-147 -447 0
-148 -448 0
-149 -449 0
-150 -450 0
-151 -196 0
-152 -197 0
-153 -198 0
-154 -199 0
-155 -200 0
-151 -201 0
-152 -202 0
-153 -203 0
-154 -204 0
-155 -205 0
-151 -236 0
-152 -237 0
-153 -238 0
-154 -239 0
-155 -240 0
-151 -326 0
-152 -327 0
-153 -328 0
-154 -329 0
-155 -330 0
-151 -331 0
-152 -332 0
-153 -333 0
-154 -334 0
-155 -335 0
-156 -196 0
-157 -197 0
-158 -198 0
-159 -199 0
-160 -200 0
-156 -201 0
-157 -202 0
-158 -203 0
-159 -204 0
-160 -205 0
-156 -326 0
-157 -327 0
-158 -328 0
-159 -329 0
-160 -330 0
-156 -356 0
-157 -357 0
-158 -358 0
-159 -359 0
-160 -360 0
-156 -396 0
-157 -397 0
-158 -398 0
-159 -399 0
-160 -400 0
-156 -411 0
-157 -412 0
-158 -413 0
-159 -414 0
-160 -415 0
-156 -416 0
-157 -417 0
-158 -418 0
-159 -419 0
-160 -420 0
-156 -446 0
-157 -447 0
-158 -448 0
-159 -449 0
-160 -450 0
-161 -186 0
-162 -187 0
-163 -188 0
-164 -189 0
-165 -190 0
-161 -201 0
-162 -202 0
-163 -203 0
-164 -204 0
-165 -205 0
-161 -231 0
-162 -232 0
-163 -233 0
-164 -234 0
-165 -235 0
-161 -296 0
-162 -297 0
-163 -298 0
-164 -299 0
-165 -300 0
-161 -311 0
-162 -312 0
-163 -313 0
-164 -314 0
-165 -315 0
-161 -401 0
-162 -402 0
-163 -403 0
-164 -404 0
-165 -405 0
-166 -306 0
-167 -307 0
-168 -308 0
-169 -309 0
-170 -310 0
-166 -401 0
-167 -402 0
-168 -403 0
-169 -404 0
-170 -405 0
-166 -411 0
-167 -412 0
-168 -413 0
-169 -414 0
-170 -415 0
-166 -441 0
-167 -442 0
-168 -443 0
-169 -444 0
-170 -445 0
-171 -246 0
-172 -247 0
-173 -248 0
-174 -249 0
-175 -250 0
-171 -276 0
-172 -277 0
-173 -278 0
-174 -279 0
-175 -280 0
-171 -386 0
-172 -387 0
-173 -388 0
-174 -389 0
-175 -390 0
-171 -486 0
-172 -487 0
-173 -488 0
-174 -489 0
-175 -490 0
-171 -491 0
-172 -492 0
-173 -493 0
-174 -494 0
-175 -495 0
-176 -241 0
-177 -242 0
-178 -243 0
-179 -244 0
-180 -245 0
-176 -251 0
-177 -252 0
-178 -253 0
-179 -254 0
-180 -255 0
-176 -326 0
-177 -327 0
-178 -328 0
-179 -329 0
-180 -330 0
-176 -336 0
-177 -337 0
-178 -338 0
-179 -339 0
-180 -340 0
-176 -366 0
-177 -367 0
-178 -368 0
-179 -369 0
-180 -370 0
-176 -391 0
-177 -392 0
-178 -393 0
-179 -394 0
-180 -395 0
-176 -401 0
-177 -402 0
-178 -403 0
-179 -404 0
-180 -405 0
-176 -406 0
-177 -407 0
-178 -408 0
-179 -409 0
-180 -410 0
-176 -426 0
-177 -427 0
-178 -428 0
-179 -429 0
-180 -430 0
-176 -481 0
-177 -482 0
-178 -483 0
-179 -484 0
-180 -485 0
-181 -231 0
-182 -232 0
-183 -233 0
-184 -234 0
-185 -235 0
-181 -251 0
-182 -252 0
-183 -253 0
-184 -254 0
-185 -255 0
-181 -341 0
-182 -342 0
-183 -343 0
-184 -344 0
-185 -345 0
-181 -351 0
-182 -352 0
-183 -353 0
-184 -354 0
-185 -355 0
-181 -366 0
-182 -367 0
-183 -368 0
-184 -369 0
-185 -370 0
-181 -491 0
-182 -492 0
-183 -493 0
-184 -494 0
-185 -495 0
-186 -236 0
-187 -237 0
-188 -238 0
-189 -239 0
-190 -240 0
-186 -281 0
-187 -282 0
-188 -283 0
-189 -284 0
-190 -285 0
-186 -316 0
-187 -317 0
-188 -318 0
-189 -319 0
-190 -320 0
-186 -431 0
-187 -432 0
-188 -433 0
-189 -434 0
-190 -435 0
-186 -436 0
-187 -437 0
-188 -438 0
-189 -439 0
-190 -440 0
-186 -461 0
-187 -462 0
-188 -463 0
-189 -464 0
-190 -465 0
-191 -226 0
-192 -227 0
-193 -228 0
-194 -229 0
-195 -230 0
-191 -266 0
-192 -267 0
-193 -268 0
-194 -269 0
-195 -270 0
-191 -281 0
-192 -282 0
-193 -283 0
-194 -284 0
-195 -285 0
-191 -421 0
-192 -422 0
-193 -423 0
-194 -424 0
-195 -425 0
-191 -436 0
-192 -437 0
-193 -438 0
-194 -439 0
-195 -440 0
-191 -456 0
-192 -457 0
-193 -458 0
-194 -459 0
-195 -460 0
-196 -326 0
-197 -327 0
-198 -328 0
-199 -329 0
-200 -330 0
-196 -411 0
-197 -412 0
-198 -413 0
-199 -414 0
-200 -415 0
-196 -451 0
-197 -452 0
-198 -453 0
-199 -454 0
-200 -455 0
-201 -326 0
-202 -327 0
-203 -328 0
-204 -329 0
-205 -330 0
-201 -371 0
-202 -372 0
-203 -373 0
-204 -374 0
-205 -375 0
-201 -386 0
-202 -387 0
-203 -388 0
-204 -389 0
-205 -390 0
-201 -416 0
-202 -417 0
-203 -418 0
-204 -419 0
-205 -420 0
-201 -436 0
-202 -437 0
-203 -438 0
-204 -439 0
-205 -440 0
-201 -496 0
-202 -497 0
-203 -498 0
-204 -499 0
-205 -500 0
-206 -231 0
-207 -232 0
-208 -233 0
-209 -234 0
-210 -235 0
-206 -326 0
-207 -327 0
-208 -328 0
-209 -329 0
-210 -330 0
-206 -386 0
-207 -387 0
-208 -388 0
-209 -389 0
-210 -390 0
-206 -391 0
-207 -392 0
-208 -393 0
-209 -394 0
-210 -395 0
-206 -486 0
-207 -487 0
-208 -488 0
-209 -489 0
-210 -490 0
-211 -276 0
-212 -277 0
-213 -278 0
-214 -279 0
-215 -280 0
-216 -336 0
-217 -337 0
-218 -338 0
-219 -339 0
-220 -340 0
-216 -351 0
-217 -352 0
-218 -353 0
-219 -354 0
-220 -355 0
-216 -376 0
-217 -377 0
-218 -378 0
-219 -379 0
-220 -380 0
-216 -396 0
-217 -397 0
-218 -398 0
-219 -399 0
-220 -400 0
-216 -476 0
-217 -477 0
-218 -478 0
-219 -479 0
-220 -480 0
-221 -361 0
-222 -362 0
-223 -363 0
-224 -364 0
-225 -365 0
-221 -366 0
-222 -367 0
-223 -368 0
-224 -369 0
-225 -370 0
-221 -451 0
-222 -452 0
-223 -453 0
-224 -454 0
-225 -455 0
-221 -461 0
-222 -462 0
-223 -463 0
-224 -464 0
-225 -465 0
-226 -351 0
-227 -352 0
-228 -353 0
-229 -354 0
-230 -355 0
-226 -386 0
-227 -387 0
-228 -388 0
-229 -389 0
-230 -390 0
-226 -421 0
-227 -422 0
-228 -423 0
-229 -424 0
-230 -425 0
-226 -451 0
-227 -452 0
-228 -453 0
-229 -454 0
-230 -455 0
-231 -451 0
-232 -452 0
-233 -453 0
-234 -454 0
-235 -455 0
-236 -266 0
-237 -267 0
-238 -268 0
-239 -269 0
-240 -270 0
-236 -286 0
-237 -287 0
-238 -288 0
-239 -289 0
-240 -290 0
-236 -321 0
-237 -322 0
-238 -323 0
-239 -324 0
-240 -325 0
-236 -351 0
-237 -352 0
-238 -353 0
-239 -354 0
-240 -355 0
-236 -361 0
-237 -362 0
-238 -363 0
-239 -364 0
-240 -365 0
-236 -401 0
-237 -402 0
-238 -403 0
-239 -404 0
-240 -405 0
-236 -451 0
-237 -452 0
-238 -453 0
-239 -454 0
-240 -455 0
-241 -271 0
-242 -272 0
-243 -273 0
-244 -274 0
-245 -275 0
-241 -321 0
-242 -322 0
-243 -323 0
-244 -324 0
-245 -325 0
-241 -346 0
-242 -347 0
-243 -348 0
-244 -349 0
-245 -350 0
-246 -276 0
-247 -277 0
-248 -278 0
-249 -279 0
-250 -280 0
-246 -361 0
-247 -362 0
-248 -363 0
-249 -364 0
-250 -365 0
-246 -366 0
-247 -367 0
-248 -368 0
-249 -369 0
-250 -370 0
-246 -386 0
-247 -387 0
-248 -388 0
-249 -389 0
-250 -390 0
-246 -476 0
-247 -477 0
-248 -478 0
-249 -479 0
-250 -480 0
-251 -276 0
-252 -277 0
-253 -278 0
-254 -279 0
-255 -280 0
-251 -311 0
-252 -312 0
-253 -313 0
-254 -314 0
-255 -315 0
-251 -346 0
-252 -347 0
-253 -348 0
-254 -349 0
-255 -350 0
-251 -406 0
-252 -407 0
-253 -408 0
-254 -409 0
-255 -410 0
-251 -451 0
-252 -452 0
-253 -453 0
-254 -454 0
-255 -455 0
-256 -436 0
-257 -437 0
-258 -438 0
-259 -439 0
-260 -440 0
-256 -486 0
-257 -487 0
-258 -488 0
-259 -489 0
-260 -490 0
-256 -496 0
-257 -497 0
-258 -498 0
-259 -499 0
-260 -500 0
-261 -301 0
-262 -302 0
-263 -303 0
-264 -304 0
-265 -305 0
-261 -326 0
-262 -327 0
-263 -328 0
-264 -329 0
-265 -330 0
-261 -331 0
-262 -332 0
-263 -333 0
-264 -334 0
-265 -335 0
-261 -361 0
-262 -362 0
-263 -363 0
-264 -364 0
-265 -365 0
-261 -451 0
-262 -452 0
-263 -453 0
-264 -454 0
-265 -455 0
-261 -481 0
-262 -482 0
-263 -483 0
-264 -484 0
-265 -485 0
-261 -496 0
-262 -497 0
-263 -498 0
-264 -499 0
-265 -500 0
-266 -296 0
-267 -297 0
-268 -298 0
-269 -299 0
-270 -300 0
-271 -311 0
-272 -312 0
-273 -313 0
-274 -314 0
-275 -315 0
-271 -441 0
-272 -442 0
-273 -443 0
-274 -444 0
-275 -445 0
-276 -421 0
-277 -422 0
-278 -423 0
-279 -424 0
-280 -425 0
-276 -466 0
-277 -467 0
-278 -468 0
-279 -469 0
-280 -470 0
-276 -481 0
-277 -482 0
-278 -483 0
-279 -484 0
-280 -485 0
-281 -321 0
-282 -322 0
-283 -323 0
-284 -324 0
-285 -325 0
-281 -326 0
-282 -327 0
-283 -328 0
-284 -329 0
-285 -330 0
-281 -406 0
-282 -407 0
-283 -408 0
-284 -409 0
-285 -410 0
-281 -421 0
-282 -422 0
-283 -423 0
-284 -424 0
-285 -425 0
-281 -446 0
-282 -447 0
-283 -448 0
-284 -449 0
-285 -450 0
-281 -456 0
-282 -457 0
-283 -458 0
-284 -459 0
-285 -460 0
-286 -436 0
-287 -437 0
-288 -438 0
-289 -439 0
-290 -440 0
-286 -456 0
-287 -457 0
-288 -458 0
-289 -459 0
-290 -460 0
-286 -471 0
-287 -472 0
-288 -473 0
-289 -474 0
-290 -475 0
-291 -411 0
-292 -412 0
-293 -413 0
-294 -414 0
-295 -415 0
-291 -466 0
-292 -467 0
-293 -468 0
-294 -469 0
-295 -470 0
-296 -341 0
-297 -342 0
-298 -343 0
-299 -344 0
-300 -345 0
-296 -361 0
-297 -362 0
-298 -363 0
-299 -364 0
-300 -365 0
-296 -381 0
-297 -382 0
-298 -383 0
-299 -384 0
-300 -385 0
-296 -391 0
-297 -392 0
-298 -393 0
-299 -394 0
-300 -395 0
-296 -426 0
-297 -427 0
-298 -428 0
-299 -429 0
-300 -430 0
-296 -441 0
-297 -442 0
-298 -443 0
-299 -444 0
-300 -445 0
-296 -491 0
-297 -492 0
-298 -493 0
-299 -494 0
-300 -495 0
-301 -371 0
-302 -372 0
-303 -373 0
-304 -374 0
-305 -375 0
-301 -401 0
-302 -402 0
-303 -403 0
-304 -404 0
-305 -405 0
-306 -436 0
-307 -437 0
-308 -438 0
-309 -439 0
-310 -440 0
-306 -451 0
-307 -452 0
-308 -453 0
-309 -454 0
-310 -455 0
-311 -341 0
-312 -342 0
-313 -343 0
-314 -344 0
-315 -345 0
-311 -391 0
-312 -392 0
-313 -393 0
-314 -394 0
-315 -395 0
-311 -426 0
-312 -427 0
-313 -428 0
-314 -429 0
-315 -430 0
-311 -466 0
-312 -467 0
-313 -468 0
-314 -469 0
-315 -470 0
-311 -471 0
-312 -472 0
-313 -473 0
-314 -474 0
-315 -475 0
-316 -346 0
-317 -347 0
-318 -348 0
-319 -349 0
-320 -350 0
-316 -426 0
-317 -427 0
-318 -428 0
-319 -429 0
-320 -430 0
-321 -361 0
-322 -362 0
-323 -363 0
-324 -364 0
-325 -365 0
-321 -381 0
-322 -382 0
-323 -383 0
-324 -384 0
-325 -385 0
-321 -401 0
-322 -402 0
-323 -403 0
-324 -404 0
-325 -405 0
-321 -476 0
-322 -477 0
-323 -478 0
-324 -479 0
-325 -480 0
-326 -386 0
-327 -387 0
-328 -388 0
-329 -389 0
-330 -390 0
-326 -431 0
-327 -432 0
-328 -433 0
-329 -434 0
-330 -435 0
-326 -456 0
-327 -457 0
-328 -458 0
-329 -459 0
-330 -460 0
-336 -491 0
-337 -492 0
-338 -493 0
-339 -494 0
-340 -495 0
-336 -496 0
-337 -497 0
-338 -498 0
-339 -499 0
-340 -500 0
-341 -426 0
-342 -427 0
-343 -428 0
-344 -429 0
-345 -430 0
-341 -431 0
-342 -432 0
-343 -433 0
-344 -434 0
-345 -435 0
-346 -416 0
-347 -417 0
-348 -418 0
-349 -419 0
-350 -420 0
-346 -426 0
-347 -427 0
-348 -428 0
-349 -429 0
-350 -430 0
-351 -416 0
-352 -417 0
-353 -418 0
-354 -419 0
-355 -420 0
-356 -461 0
-357 -462 0
-358 -463 0
-359 -464 0
-360 -465 0
-356 -471 0
-357 -472 0
-358 -473 0
-359 -474 0
-360 -475 0
-356 -481 0
-357 -482 0
-358 -483 0
-359 -484 0
-360 -485 0
-356 -491 0
-357 -492 0
-358 -493 0
-359 -494 0
-360 -495 0
-361 -411 0
-362 -412 0
-363 -413 0
-364 -414 0
-365 -415 0
-361 -426 0
-362 -427 0
-363 -428 0
-364 -429 0
-365 -430 0
-361 -441 0
-362 -442 0
-363 -443 0
-364 -444 0
-365 -445 0
-366 -476 0
-367 -477 0
-368 -478 0
-369 -479 0
-370 -480 0
-376 -431 0
-377 -432 0
-378 -433 0
-379 -434 0
-380 -435 0
-391 -431 0
-392 -432 0
-393 -433 0
-394 -434 0
-395 -435 0
-391 -446 0
-392 -447 0
-393 -448 0
-394 -449 0
-395 -450 0
-391 -486 0
-392 -487 0
-393 -488 0
-394 -489 0
-395 -490 0
-391 -491 0
-392 -492 0
-393 -493 0
-394 -494 0
-395 -495 0
-396 -451 0
-397 -452 0
-398 -453 0
-399 -454 0
-400 -455 0
-401 -481 0
-402 -482 0
-403 -483 0
-404 -484 0
-405 -485 0
-431 -456 0
-432 -457 0
-433 -458 0
-434 -459 0
-435 -460 0
-431 -471 0
-432 -472 0
-433 -473 0
-434 -474 0
-435 -475 0
-436 -476 0
-437 -477 0
-438 -478 0
-439 -479 0
-440 -480 0
-451 -476 0
-452 -477 0
-453 -478 0
-454 -479 0
-455 -480 0
